num_people : 99
num_shifts : 99
max_people_per_shift : 20
num_roles : 7
availability = [
    {0, 1},
    {0, 1},
    {0, 1},
    {0, 1},
    {0, 1},
    {0, 1},
    {0, 1},
    {0, 1},
    {0, 1},
    {0, 1},
    {0, 1},
    {0, 1},
    {0, 1},
    {0, 1},
    {0, 1},
    {0, 1},
    {0, 1},
    {0, 1},
    {0, 1},
    {0, 1},
    {0, 1},
    {0, 1},
    {0, 1},
    {0, 1},
    {0, 1},
    {0, 1},
    {0, 1},
    {0, 1},
    {0, 1},
    {0, 1},
    {0, 1},
    {0, 1},
    {0, 1},
    {0, 1},
    {0, 1},
    {0, 1},
    {0, 1},
    {0, 1},
    {0, 1},
    {0, 1},
    {0, 1},
    {0, 1},
    {0, 1},
    {0, 1},
    {0, 1},
    {0, 1},
    {0, 1},
    {0, 1},
    {0, 1},
    {0, 1},
    {0, 1},
    {0, 1},
    {0, 1},
    {0, 1},
    {0, 1},
    {0, 1},
    {0, 1},
    {0, 1},
    {0, 1},
    {0, 1},
    {0, 1},
    {0, 1},
    {0, 1},
    {0, 1},
    {0, 1},
    {0, 1},
    {0, 1},
    {0, 1},
    {0, 1},
    {0, 1},
    {0, 1},
    {0, 1},
    {0, 1},
    {0, 1},
    {0, 1},
    {0, 1},
    {0, 1},
    {0, 1},
    {0, 1},
    {0, 1},
    {0, 1},
    {0, 1},
    {0, 1},
    {0, 1},
    {0, 1},
    {0, 1},
    {0, 1},
    {0, 1},
    {0, 1},
    {0, 1},
    {0, 1},
    {0, 1},
    {0, 1},
    {0, 1},
    {0, 1},
    {0, 1},
    {0, 1},
    {0, 1},
    {0, 1},
];

roles = [Volunteers, Speakers, Webdev, Coordenator, Coordenator, Volunteers, Volunteers, Webdev, Volunteers, Coordenator, Business, Volunteers, Business, Coordenator, Volunteers, Webdev, Logistics, Logistics, Webdev, Volunteers, Business, Speakers, Volunteers, Marketing, Marketing, Marketing, Webdev, Business, Coordenator, Logistics, Coordenator, Logistics, Volunteers, Webdev, Logistics, Speakers, Speakers, Business, Business, Webdev, Marketing, Business, Logistics, Business, Webdev, Coordenator, Speakers, Coordenator, Volunteers, Speakers, Volunteers, Logistics, Logistics, Logistics, Marketing, Coordenator, Business, Volunteers, Business, Logistics, Volunteers, Webdev, Business, Marketing, Volunteers, Business, Volunteers, Volunteers, Coordenator, Webdev, Coordenator, Volunteers, Webdev, Coordenator, Coordenator, Business, Webdev, Business, Webdev, Speakers, Webdev, Coordenator, Volunteers, Logistics, Speakers, Volunteers, Volunteers, Volunteers, Speakers, Speakers, Speakers, Business, Business, Business, Marketing, Business, Webdev, Webdev, Business];
